(set-logic QF_NRA)

(declare-fun skoY () Real)
(declare-fun pi () Real)
(declare-fun skoX () Real)
(assert (and (not (<= (* skoY (* skoY (+ (/ 1. 2.) (* skoY (* skoY (+ (/ (- 1.) 24.) (* skoY (* skoY (+ (/ 1. 720.) (* skoY (* skoY (+ (/ (- 1.) 40320.) (* skoY (* skoY (+ (/ 1. 3628800.) (* skoY (* skoY (/ (- 1.) 479001600.)))))))))))))))))) 1.)) (and (<= skoY (+ (/ (- 1.) 5.) (* pi (/ 1. 2.)))) (and (not (<= pi (/ 15707963. 5000000.))) (and (not (<= (/ 31415927. 10000000.) pi)) (and (<= (/ 1. 10.) skoX) (not (<= skoY skoX))))))))
(set-info :status unsat)
(check-sat)
